
Gurobi 10.0.1 (mac64[arm]) logging started Mon Sep 18 22:44:44 2023

Set parameter LogFile to value "scenario_capacity/CAP_g/results/CAP_g_50/mip_log.txt"
Gurobi Optimizer version 10.0.1 build v10.0.1rc0 (mac64[arm])

CPU model: Apple M1
Thread count: 8 physical cores, 8 logical processors, using up to 8 threads

Optimize a model with 8470 rows, 31465 columns and 123860 nonzeros
Model fingerprint: 0x840a4e64
Model has 44890 general constraints
Variable types: 5 continuous, 31460 integer (2040 binary)
Coefficient statistics:
  Matrix range     [6e-02, 3e+05]
  Objective range  [9e-02, 2e+05]
  Bounds range     [1e+00, 2e+07]
  RHS range        [4e+03, 2e+04]
  GenCon rhs range [1e+00, 1e+00]
  GenCon coe range [1e+00, 1e+00]

MIP start from previous solve did not produce a new incumbent solution
Processed MIP start in 4.35 seconds (5.72 work units)

Presolve removed 6820 rows and 25545 columns
Presolve time: 0.84s
Presolved: 1650 rows, 5920 columns, 23713 nonzeros
Presolved model has 4 SOS constraint(s)
Variable types: 0 continuous, 5920 integer (34 binary)

Root simplex log...

Iteration    Objective       Primal Inf.    Dual Inf.      Time
       0    2.2407872e+06   2.721645e+05   0.000000e+00      5s
    6830    5.2598853e+07   0.000000e+00   0.000000e+00      5s

Root relaxation: objective 5.259885e+07, 6830 iterations, 0.08 seconds (0.10 work units)

    Nodes    |    Current Node    |     Objective Bounds      |     Work
 Expl Unexpl |  Obj  Depth IntInf | Incumbent    BestBd   Gap | It/Node Time

     0     0 5.2599e+07    0  334          - 5.2599e+07      -     -    5s
     0     0 5.3701e+07    0  754          - 5.3701e+07      -     -    5s
H    0     0                    6.047829e+07 5.3701e+07  11.2%     -    5s
     0     0 5.3774e+07    0  733 6.0478e+07 5.3774e+07  11.1%     -    5s
H    0     0                    6.034755e+07 5.3774e+07  10.9%     -    5s
     0     0 5.3774e+07    0  740 6.0348e+07 5.3774e+07  10.9%     -    5s
     0     0 5.3774e+07    0  740 6.0348e+07 5.3774e+07  10.9%     -    5s
     0     0 5.3774e+07    0  738 6.0348e+07 5.3774e+07  10.9%     -    5s
     0     0 5.3823e+07    0  779 6.0348e+07 5.3823e+07  10.8%     -    5s
     0     0 5.3827e+07    0  955 6.0348e+07 5.3827e+07  10.8%     -    5s
     0     0 5.3842e+07    0  988 6.0348e+07 5.3842e+07  10.8%     -    5s
     0     0 5.3842e+07    0  992 6.0348e+07 5.3842e+07  10.8%     -    5s
     0     0 5.3842e+07    0  990 6.0348e+07 5.3842e+07  10.8%     -    5s
     0     0 5.3853e+07    0  991 6.0348e+07 5.3853e+07  10.8%     -    5s
     0     0 5.3881e+07    0  974 6.0348e+07 5.3881e+07  10.7%     -    5s
     0     0 5.3886e+07    0  966 6.0348e+07 5.3886e+07  10.7%     -    5s
H    0     0                    5.913876e+07 5.3886e+07  8.88%     -    6s
     0     2 5.3886e+07    0  960 5.9139e+07 5.3886e+07  8.88%     -    6s
H   34    40                    5.912676e+07 5.3958e+07  8.74%   818    6s
H   35    40                    5.911323e+07 5.3958e+07  8.72%   808    6s
H   37    40                    5.907073e+07 5.3958e+07  8.66%   795    6s
H   38    40                    5.906632e+07 5.3958e+07  8.65%   795    6s
H   75    77                    5.731175e+07 5.3958e+07  5.85%   592    7s
H   81    77                    5.708913e+07 5.3958e+07  5.49%   565    7s
H  788   513                    5.656716e+07 5.4112e+07  4.34%   169    8s
  1379   519 5.4588e+07   12  921 5.6567e+07 5.4505e+07  3.65%   190   10s
H 1506   523                    5.648749e+07 5.4505e+07  3.51%   193   10s
H 1563   532                    5.648748e+07 5.4505e+07  3.51%   192   11s
H 1564   509                    5.648748e+07 5.4505e+07  3.51%   193   11s
H 2481   500                    5.648748e+07 5.4505e+07  3.51%   147   12s
H 3111   807                    5.647893e+07 5.4505e+07  3.50%   130   12s
H 3693  1093                    5.647839e+07 5.4505e+07  3.49%   120   13s
H 4968  1459                    5.647757e+07 5.4505e+07  3.49%   108   13s
H 5035  1474                    5.647752e+07 5.4505e+07  3.49%   107   13s
H 5467   883                    5.637645e+07 5.4606e+07  3.14%   106   14s
H 5949   871                    5.637643e+07 5.4698e+07  2.98%   104   14s
H 5974   871                    5.637641e+07 5.4704e+07  2.97%   105   14s
H 5980   871                    5.637639e+07 5.4718e+07  2.94%   105   14s
  6418   969     cutoff   27      5.6376e+07 5.4814e+07  2.77%   103   15s
 14467  1129 infeasible   32      5.6376e+07 5.5731e+07  1.14%  94.0   20s
H18411   712                    5.636993e+07 5.6065e+07  0.54%  91.3   21s
H19097   717                    5.636993e+07 5.6128e+07  0.43%  90.7   22s
H19229   717                    5.636992e+07 5.6128e+07  0.43%  90.5   22s
H19232   717                    5.636990e+07 5.6128e+07  0.43%  90.5   22s
H19350   592                    5.634508e+07 5.6128e+07  0.38%  90.0   22s
H20291   356                    5.633792e+07 5.6157e+07  0.32%  89.5   22s
H21216  1392                    5.633599e+07 5.6217e+07  0.21%  86.6   23s
H23195  2768                    5.632443e+07 5.6311e+07  0.02%  80.4   23s
H24099  2600                    5.631131e+07 5.6311e+07  0.00%  77.6   23s
*25177  2600              51    5.631111e+07 5.6311e+07  0.00%  74.3   23s

Explored 25290 nodes (1882745 simplex iterations) in 23.53 seconds (30.67 work units)
Thread count was 8 (of 8 available processors)

Solution count 10: 5.63111e+07 5.63113e+07 5.63244e+07 ... 5.63699e+07

Optimal solution found (tolerance 1.00e-04)
Best objective 5.631110711300e+07, best bound 5.631110575127e+07, gap 0.0000%
